NAME : d198.tour
COMMENT : best solution found for d198 (16065.0)
TYPE : TOUR 
DIMENSION : 198
TOUR_SECTION
0
1
6
5
2
3
4
7
8
9
10
11
12
40
39
14
13
22
21
27
29
28
31
30
37
43
54
55
42
41
56
57
68
70
84
85
99
98
86
83
72
71
67
58
59
66
69
73
65
60
53
44
52
61
74
81
82
87
97
96
88
89
95
80
75
76
63
77
79
78
91
90
92
93
94
100
101
102
103
104
113
112
111
105
106
110
109
108
107
119
118
117
116
115
114
121
120
122
123
137
138
153
154
155
156
157
158
159
160
161
151
152
147
146
141
139
142
145
148
144
149
150
162
163
164
165
171
136
143
140
135
134
133
131
132
129
130
124
168
125
128
126
169
127
170
188
189
190
187
186
191
192
185
195
196
197
194
193
178
184
183
179
177
173
172
175
174
176
180
182
181
167
166
62
48
47
49
50
64
51
45
36
35
32
33
38
46
34
26
25
24
23
20
19
18
17
16
15
-1
EOF